(declare-const X String)
; ^(((0[1-9]|[12]\d|3[01])\/(0[13578]|1[02])\/((1[6-9]|[2-9]\d)\d{2}))|((0[1-9]|[12]\d|30)\/(0[13456789]|1[012])\/((1[6-9]|[2-9]\d)\d{2}))|((0[1-9]|1\d|2[0-8])\/02\/((1[6-9]|[2-9]\d)\d{2}))|(29\/02\/((1[6-9]|[2-9]\d)(0[48]|[2468][048]|[13579][26])|((16|[2468][048]|[3579][26])00))))$
(assert (str.in.re X (re.++ (re.union (re.++ (re.union (re.++ (str.to.re "0") (re.range "1" "9")) (re.++ (re.union (str.to.re "1") (str.to.re "2")) (re.range "0" "9")) (re.++ (str.to.re "3") (re.union (str.to.re "0") (str.to.re "1")))) (str.to.re "/") (re.union (re.++ (str.to.re "0") (re.union (str.to.re "1") (str.to.re "3") (str.to.re "5") (str.to.re "7") (str.to.re "8"))) (re.++ (str.to.re "1") (re.union (str.to.re "0") (str.to.re "2")))) (str.to.re "/") (re.union (re.++ (str.to.re "1") (re.range "6" "9")) (re.++ (re.range "2" "9") (re.range "0" "9"))) ((_ re.loop 2 2) (re.range "0" "9"))) (re.++ (re.union (re.++ (str.to.re "0") (re.range "1" "9")) (re.++ (re.union (str.to.re "1") (str.to.re "2")) (re.range "0" "9")) (str.to.re "30")) (str.to.re "/") (re.union (re.++ (str.to.re "0") (re.union (str.to.re "1") (str.to.re "3") (str.to.re "4") (str.to.re "5") (str.to.re "6") (str.to.re "7") (str.to.re "8") (str.to.re "9"))) (re.++ (str.to.re "1") (re.union (str.to.re "0") (str.to.re "1") (str.to.re "2")))) (str.to.re "/") (re.union (re.++ (str.to.re "1") (re.range "6" "9")) (re.++ (re.range "2" "9") (re.range "0" "9"))) ((_ re.loop 2 2) (re.range "0" "9"))) (re.++ (re.union (re.++ (str.to.re "0") (re.range "1" "9")) (re.++ (str.to.re "1") (re.range "0" "9")) (re.++ (str.to.re "2") (re.range "0" "8"))) (str.to.re "/02/") (re.union (re.++ (str.to.re "1") (re.range "6" "9")) (re.++ (re.range "2" "9") (re.range "0" "9"))) ((_ re.loop 2 2) (re.range "0" "9"))) (re.++ (str.to.re "29/02/") (re.union (re.++ (re.union (re.++ (str.to.re "1") (re.range "6" "9")) (re.++ (re.range "2" "9") (re.range "0" "9"))) (re.union (re.++ (str.to.re "0") (re.union (str.to.re "4") (str.to.re "8"))) (re.++ (re.union (str.to.re "2") (str.to.re "4") (str.to.re "6") (str.to.re "8")) (re.union (str.to.re "0") (str.to.re "4") (str.to.re "8"))) (re.++ (re.union (str.to.re "1") (str.to.re "3") (str.to.re "5") (str.to.re "7") (str.to.re "9")) (re.union (str.to.re "2") (str.to.re "6"))))) (re.++ (re.union (str.to.re "16") (re.++ (re.union (str.to.re "2") (str.to.re "4") (str.to.re "6") (str.to.re "8")) (re.union (str.to.re "0") (str.to.re "4") (str.to.re "8"))) (re.++ (re.union (str.to.re "3") (str.to.re "5") (str.to.re "7") (str.to.re "9")) (re.union (str.to.re "2") (str.to.re "6")))) (str.to.re "00"))))) (str.to.re "\x0a"))))
; DATencentTravelerWebConnLibHost\x3A
(assert (not (str.in.re X (str.to.re "DATencentTravelerWebConnLibHost:\x0a"))))
; (0[1-9]|[12][0-9]|3[01])\s(J(anuary|uly)|Ma(rch|y)|August|(Octo|Decem)ber)\s[1-9][0-9]{3}|
(assert (str.in.re X (re.union (re.++ (re.union (re.++ (str.to.re "0") (re.range "1" "9")) (re.++ (re.union (str.to.re "1") (str.to.re "2")) (re.range "0" "9")) (re.++ (str.to.re "3") (re.union (str.to.re "0") (str.to.re "1")))) (re.union (str.to.re " ") (str.to.re "\x09") (str.to.re "\x0a") (str.to.re "\x0c") (str.to.re "\x0d")) (re.union (re.++ (str.to.re "J") (re.union (str.to.re "anuary") (str.to.re "uly"))) (re.++ (str.to.re "Ma") (re.union (str.to.re "rch") (str.to.re "y"))) (str.to.re "August") (re.++ (re.union (str.to.re "Octo") (str.to.re "Decem")) (str.to.re "ber"))) (re.union (str.to.re " ") (str.to.re "\x09") (str.to.re "\x0a") (str.to.re "\x0c") (str.to.re "\x0d")) (re.range "1" "9") ((_ re.loop 3 3) (re.range "0" "9"))) (str.to.re "\x0a"))))
(check-sat)
